qe/outputs/qe/qe_queries_cbrdelay/T=5,eliminate=[I_0,I_1,I_2,I_3,I_4,L_1,L_2,L_3,L_4,ideal].smt2
; benchmark generated from python API
(set-info :status unknown)
(declare-fun L_0 () Real)
(declare-fun C () Real)
(declare-fun B () Real)
(declare-fun S_3 () Real)
(declare-fun A_3 () Real)
(declare-fun A_4 () Real)
(declare-fun S_4 () Real)
(declare-fun S_2 () Real)
(declare-fun A_2 () Real)
(declare-fun S_1 () Real)
(declare-fun A_1 () Real)
(declare-fun S_0 () Real)
(declare-fun A_0 () Real)
(assert
 (let (($x34 (>= L_0 0.0)))
 (let (($x562 (>= C 5.0)))
 (let (($x763 (>= B 5.0)))
 (let ((?x523 (+ S_3 C)))
 (let (($x2652 (<= (+ A_4 (* (- 1.0) A_3) B) C)))
 (let (($x2618 (= S_4 (ite $x2652 (+ A_4 (* (- 1.0) A_3) S_3 B) ?x523))))
 (let (($x1527 (<= (+ A_3 (* (- 1.0) A_2) S_2 (* (- 1.0) S_3)) 0.0)))
 (let (($x894 (<= (+ A_2 (* (- 1.0) L_0) (* (- 1.0) S_2)) B)))
 (let (($x830 (<= (+ A_1 (* (- 1.0) L_0) (* (- 1.0) S_1)) B)))
 (let (($x829 (not $x830)))
 (let ((?x433 (* (- 1.0) A_2)))
 (let ((?x1663 (+ A_4 ?x433 S_2 B)))
 (let (($x2804 (<= ?x1663 ?x523)))
 (let (($x2811 (= S_4 (ite $x2804 ?x1663 ?x523))))
 (let (($x1661 (not $x1527)))
 (let ((?x799 (+ S_2 C)))
 (let (($x2787 (<= (+ A_3 ?x433 B) C)))
 (let (($x2794 (= S_3 (ite $x2787 (+ A_3 ?x433 S_2 B) ?x799))))
 (let (($x895 (not $x894)))
 (let ((?x594 (* (- 1.0) L_0)))
 (let ((?x886 (+ A_3 ?x594)))
 (let (($x322 (= S_3 (ite (<= ?x886 ?x799) ?x886 ?x799))))
 (let (($x2768 (= S_4 (ite (<= (+ A_4 ?x594) ?x523) (+ A_4 ?x594) ?x523))))
 (let ((?x535 (+ S_1 C)))
 (let ((?x891 (+ A_2 ?x594)))
 (let (($x362 (= S_2 (ite (<= ?x891 ?x535) ?x891 ?x535))))
 (let ((?x437 (* (- 1.0) A_1)))
 (let ((?x1161 (+ A_4 ?x437 S_1 B)))
 (let (($x2771 (<= ?x1161 ?x523)))
 (let (($x2780 (= S_4 (ite $x2771 ?x1161 ?x523))))
 (let (($x1176 (<= (+ A_3 ?x437 S_1 (* (- 1.0) S_3)) 0.0)))
 (let (($x1177 (not $x1176)))
 (let (($x1158 (<= (+ A_2 ?x437 S_1 (* (- 1.0) S_2)) 0.0)))
 (let (($x1159 (not $x1158)))
 (let ((?x1170 (+ A_3 ?x437 S_1 B)))
 (let (($x2753 (<= ?x1170 ?x799)))
 (let (($x2755 (= S_3 (ite $x2753 ?x1170 ?x799))))
 (let (($x3775 (or (<= (+ A_4 (* (- 1.0) A_3) S_3 (* (- 1.0) S_4)) 0.0) $x2768)))
 (let (($x338 (= S_2 (ite (<= (+ A_2 ?x437 B) C) (+ A_2 ?x437 S_1 B) ?x535))))
 (let ((?x740 (+ S_0 C)))
 (let ((?x833 (+ A_1 ?x594)))
 (let (($x119 (>= A_1 A_0)))
 (let (($x120 (>= A_2 A_1)))
 (let (($x121 (>= A_3 A_2)))
 (let (($x122 (>= A_4 A_3)))
 (and $x122 $x121 $x120 $x119 (<= S_0 (+ A_0 ?x594)) (= S_1 (ite (<= ?x833 ?x740) ?x833 ?x740)) (or $x362 $x1158) (or $x322 $x1159 $x1176) (or $x830 $x1159 $x1176 $x2618) (or $x338 $x830) (or $x322 $x1159 $x2753) (or $x830 $x2755 (not $x322)) $x3775 (or $x322 $x1158 $x2787) (or $x830 (not $x322) $x2794) (or $x830 $x1158 $x1527 $x2618) (or $x1158 $x1661 $x2768 $x2804) (or $x830 $x1158 $x1661 $x2811) (or $x830 $x1158 $x2794) (or $x830 $x1159 $x2755) (or $x1159 $x1177 $x2768 $x2771) (or $x830 $x2780 (not $x2768)) (or $x830 $x1159 $x1177 $x2780) (or $x1527 (not (<= (+ S_3 B) ?x799))) (or $x829 $x1527 $x2652 $x2768) (or $x362 $x829) (or $x894 $x2618 (not $x2768)) (or $x894 (not $x322) $x2794) (or (<= (+ A_3 ?x594 (* (- 1.0) S_3)) B) $x2618 (not $x2768)) (or $x829 (<= (+ A_3 ?x594 (* (- 1.0) S_3)) B) $x895 $x2618) (or $x829 (not (<= (+ A_3 ?x594 (* (- 1.0) S_3)) B)) $x895 $x2768) (or $x322 $x829 $x895) (or $x829 $x894 $x2794) (or $x829 $x894 $x1661 $x2811) (or $x829 $x894 $x1527 $x2618) $x763 $x562 $x34)))))))))))))))))))))))))))))))))))))))))))))))
(check-sat)
